NAME /Users/henri/Research/solvers/instances/idol-instances/robust/collection/cbp_Subramanyam_et_al_2020/CapBud_N5_6/models/uncertain_technology_matrix/
ROWS
 N  OBJ
 L  capacity
 L  c_135
 L  c_136
 L  c_137
 L  c_138
 L  c_139
COLUMNS
    MARKER    'MARKER'                 'INTORG'
    x_0        OBJ        -7.87542
    x_0        c_135      1
    x_0        capacity   1.57508
    x_1        OBJ        -6.06475
    x_1        c_136      1
    x_1        capacity   1.21295
    x_2        OBJ        -2.18403
    x_2        c_137      1
    x_2        capacity   0.436806
    x_3        OBJ        -4.55169
    x_3        c_138      1
    x_3        capacity   0.910338
    x_4        OBJ        -8.7887
    x_4        c_139      1
    x_4        capacity   1.75774
    y_0        OBJ        -6.30034
    y_0        c_135      1
    y_0        capacity   1.57508
    y_1        OBJ        -4.8518
    y_1        c_136      1
    y_1        capacity   1.21295
    y_2        OBJ        -1.74722
    y_2        c_137      1
    y_2        capacity   0.436806
    y_3        OBJ        -3.64135
    y_3        c_138      1
    y_3        capacity   0.910338
    y_4        OBJ        -7.03096
    y_4        c_139      1
    y_4        capacity   1.75774
    MARKER    'MARKER'                 'INTEND'
RHS
    RHS       capacity   14.7323
    RHS       c_135      1
    RHS       c_136      1
    RHS       c_137      1
    RHS       c_138      1
    RHS       c_139      1
BOUNDS
 LI BND       x_0        0
 UI BND       x_0        1
 LI BND       x_1        0
 UI BND       x_1        1
 LI BND       x_2        0
 UI BND       x_2        1
 LI BND       x_3        0
 UI BND       x_3        1
 LI BND       x_4        0
 UI BND       x_4        1
 LI BND       y_0        0
 UI BND       y_0        1
 LI BND       y_1        0
 UI BND       y_1        1
 LI BND       y_2        0
 UI BND       y_2        1
 LI BND       y_3        0
 UI BND       y_3        1
 LI BND       y_4        0
 UI BND       y_4        1
ENDATA
